
 START READING DATA FOR THIS CASE

 Please provide a title (42 characters or less)...

 UNIFORMLY LOADED FLAT PLATE                                            

 PLEASE PROVIDE DATA FOR SEGMENT NO.  1


 SEGMENT NO.  1 IS A CYLINDER OR CONE.
      END POINT COORDINATES (0.0000E+00,0.0000E+00) AND (0.1000E+02,0.0000E+00)

 SURFACE LOADS FOR LOAD SYSTEM "A", SEGMENT NO.  1

 POINTERS TO CIRCUMFERENTIAL HARMONICS OF LOADING    0    0    0    0    0    0    1    0    0    0    0    0

                                         PHYSICAL PROPERTIES OF SEGMENT NO.   1

 ANALYSIS IS FOR A MONOCOQUE SHELL

 MODULUS OF ELASTICITY=  0.10000E+08   , POISSON RATIO= 0.30000E+00
 SHELL DENSITY =  0.00000E+00   , THERMAL EXP COEF.=  0.00000E+00


 SHELL WALL MASS OF SEGMENT NO.  1 =   0.0000E+00
 (DISCRETE RINGS NOT INCLUDED)


 ***************************************
 TOTAL FORCES AND MOMENTS FROM APPLIED LOADS. THE FORCES AND
 MOMENTS OCCUR AT THE ORIGIN OF THE GLOBAL X,Y,Z AXIS SYSTEM,
 WHICH IS LOCATED AT AXIAL STATION Z=0. NOTE THAT THE TOTAL
 FORCES AND MOMENTS ARE NOT APPLIED AT THE C.G. OF THE
 STRUCTURE, WHICH IS AT AXIAL LOCATION ZCM=  0.0000E+00, BUT
 THEY ARE APPLIED AT AXIAL STATION Z = 0.

 NOTE: IN ORDER FOR THE MASS PROPERTIES AND DYNAMIC REACTIONS
 TO BE PROPERLY COMPUTED, THE GEOMETRY OF EVERY SEGMENT IN
 THE ENTIRE STRUCTURE MUST BE EXPRESSED IN TERMS OF THE
 GLOBAL AXIAL COORDINATE, Z.  THAT IS, YOU MUST HAVE PROVIDED
 AS INPUT FOR EACH SEGMENT THE GLOBAL Z COORDINATES.

 TOTAL FORCES FROM LOAD SET A...
  X-DIRECTION (THETA=  0 DEG.), FX(1) =               0.0000E+00
  Y-DIRECTION (THETA=270 DEG.), FY(1) =               0.0000E+00
  Z-DIRECTION (AXIAL UPWARD)  , FZ(1) =               0.0000E+00
 TOTAL MOMENTS FROM LOAD SET A...
  ABOUT X-AXIS                , MX(1) =               0.0000E+00
  ABOUT Y-AXIS                , MY(1) =               0.0000E+00
  ABOUT Z-AXIS                , MZ(1) =               0.0000E+00


 TOTAL FORCES FROM LOAD SET B...
  X-DIRECTION (THETA=  0 DEG.), FX(2) =               0.0000E+00
  Y-DIRECTION (THETA=270 DEG.), FY(2) =               0.0000E+00
  Z-DIRECTION (AXIAL)         , FZ(2) =               0.0000E+00
 TOTAL MOMENTS FROM LOAD SET B...
  ABOUT X-AXIS                , MX(2) =               0.0000E+00
  ABOUT Y-AXIS                , MY(2) =               0.0000E+00
  ABOUT Z-AXIS                , MZ(2) =               0.0000E+00


 TOTAL MASS, LOCATION OF C.G., MASS MOMENTS OF INERTIA
   TOTAL MASS, M (e.g. lb-sec**2/in)          M =     0.0000E+00
   POLAR MASS MOMENT OF INERTIA,             IZ =     0.0000E+00
   MASS MOMENT OF INERTIA ABOUT C.G.        ICM =     0.0000E+00
   AXIAL POSITION OF THE C.G.               ZCM =     0.0000E+00


 ***************** TOTAL MASS *******************
 TOTMAS =  0.0000E+00
 ********************************************************
  CONSTRAINT CONDITIONS FOR SEGMENT NO. ISEG =           1
  Endpoint of this segment is at Nodal Point No.          13
  The current segment is Segment No. ISEG =           1

 STRESS ANALYSIS INCLUDING NONLINEAR EFFECTS. THIS
 ANALYSIS YIELDS THE AXISYMMETRIC PREBUCKLING STRESSES
 AND DISPLACEMENTS FOR A GIVEN VALUE OR SEQUENCE OF
 VALUES OF THE APPLIED LOAD OR LOADS.


 ANALYSIS TYPE =   0, PRINT OPTION =  1, PLOT OPTION =  1, STRESS OPTION =  1
, PRESTRESS CALCULATION OPTION= 1

 NUMBER OF SHELL SEGMENTS =   1


 STRESS CALCULATED FOR CIRCUMFERENTIAL WAVES FROM       0 TO       0 IN INCREMENTS OF       1

 INITIAL BUCKLING OR VIBRATION WAVE NO.=      0, MINIMUM WAVE NO.=      0, MAXIMUM WAVE NO.=      0, INCREMENT=      1

    1 EIGENVALUES SOUGHT FOR EACH CIRCUMFERENTIAL WAVE NUMBER.


                                              CONSTRAINT CONDITION DATA FOLLOW

 SEG. POINT CONNECTED TO SEG. POINT     USTAR VSTAR WSTAR BETA     RADIAL DISC. D1(I)   AXIAL DISC. D2(I)

   1     1                 1     1        0     0     0     0      0.00000000E+00      0.00000000E+00
   1    11                 1    11        1     1     0     0      0.00000000E+00      0.00000000E+00

 CONSTRAINT CONDITIONS FOR STABILITY OR VIBRATION PROBLEM FOLLOW

 SEG. POINT CONNECTED TO SEG. POINT     USTAR VSTAR WSTAR BETA     RADIAL DISC. D1(I)   AXIAL DISC. D2(I)

   1     1                 1     1        0     0     0     0      0.00000000E+00      0.00000000E+00
   1    11                 1    11        1     1     0     0      0.00000000E+00      0.00000000E+00

 PRESSURE MULTIPLIER P =  1.0000E-03, INCREMENT DP=  9.9900E-01
 TEMPERATURE MULT.TEMP=  0.0000E+00, INCREMENT DTEMP=  0.0000E+00

 INITIAL LOAD, FSTART =  1.0000E+00, MAXIMUM LOAD, FMAX=  2.0010E+00
 STEP SIZE, DF=  1.0000E+00

 ANGULAR VELOCITY, OMEGA=   0.000E+00   INCREMENT IN OMEGA, DOMEGA=   0.000E+00

 GLOBAL (AXIAL,RADIAL) COORDINATES FOR ENTIRE MODEL.
 NUMBER OF FINITE ELEMENTS IN ENTIRE MODEL, I2=  13
 ELEMENT NO.   GLOBAL AXIAL COORDINATE   GLOBAL RADIAL COORD.
      1           0.00000000E+00           0.00000000E+00
      2           0.00000000E+00           2.75000006E-01
      3           0.00000000E+00           1.01250005E+00
      4           0.00000000E+00           2.00000000E+00
      5           0.00000000E+00           3.00000000E+00
      6           0.00000000E+00           4.00000000E+00
      7           0.00000000E+00           5.00000000E+00
      8           0.00000000E+00           6.00000000E+00
      9           0.00000000E+00           7.00000000E+00
     10           0.00000000E+00           8.00000000E+00
     11           0.00000000E+00           8.98750019E+00
     12           0.00000000E+00           9.72500038E+00
     13           0.00000000E+00           1.00000000E+01

 AXISYMMETRIC PRESTRESS INPUT CONSTRAINT CONDITIONS FOLLOW

 CONSTRAINT NO.   1  SEGMENT NO.   1 POINT  1 CONNECTED TO SEGMENT NO.   1 POINT  1 TYPE OF CONSTRAINT = 1
 CONSTRAINT NO.   2  SEGMENT NO.   1 POINT 13 CONNECTED TO SEGMENT NO.   1 POINT 13 TYPE OF CONSTRAINT = 2

 LOCAL MATRIX DIMENSION= 5, OVERLAP= 3 NO. CONSTRAINT CONDS. PER CONSTRAINT POINT= 3 SYSTEM RANK=   35 NUMBER OF BLOCKS=  1

 NUMBER OF EQUATIONS ASSOCIATED WITH SEGMENT NO.  1
 EQUALS  35; NO. OF CONSTRAINT PTS. EQUALS  2
 BLOCK NUMBER=  1 LAST EQ. IN BLOCK=   35 LOWEST UNK IN BLOCK=    1. MAX. OFF-DIAGONAL WIDTH=    7

 ****************************************


 PRESSURE MULTIPLIER, P=   9.999871E-04, TEMPERATURE MULTIPLIER,TEMP =   0.000000E+00
 ANGULAR VELOCITY, OMEGA=   0.000000E+00

  NUMBER OF NEWTON-RAPHSON ITERATIONS REQUIRED FOR  CONVERGENCE = ITER =  1

 OUTPUT FOR LOAD STEP NO.  1

                         AXISYMMETRIC PRESTRESS DISTRIBUTION FOR SEGMENT 1

 POINT   STATION        W0         U0          BETA        UV          N10         N20         M10         M20
       (ARC LENGTH)   NORMAL   MERIDIONAL     MERID.      AXIAL       MERID.     CIRCUMF.     MERID.     CIRCUMF.
                      DISP.   DISPLACEMENT     ROT.       DISP.     RESULTANT   RESULTANT    MOMENT      MOMENT

    1   0.000E+00   7.022E-04   3.231E-27  -8.674E-19  -7.022E-04   1.551E-03   1.551E-03  -2.012E-02  -2.012E-02

 ***** Axial displacement, UV *******
 ENDUV = -7.0221E-04
 ************************************************
    2   2.750E-01   7.016E-04   2.866E-10  -4.776E-06  -7.016E-04   1.497E-03   1.491E-03  -2.072E-02  -2.069E-02
    3   1.013E+00   6.933E-04   9.722E-10  -1.753E-05  -6.933E-04   1.446E-03   1.394E-03  -2.053E-02  -2.059E-02
    4   2.000E+00   6.676E-04   1.611E-09  -3.423E-05  -6.676E-04   1.376E-03   1.218E-03  -1.991E-02  -2.024E-02
    5   3.000E+00   6.250E-04   1.687E-09  -5.033E-05  -6.250E-04   1.278E-03   9.459E-04  -1.888E-02  -1.964E-02
    6   4.000E+00   5.669E-04   9.756E-10  -6.520E-05  -5.669E-04   1.151E-03   5.891E-04  -1.744E-02  -1.881E-02
    7   5.000E+00   4.947E-04  -6.646E-10  -7.842E-05  -4.947E-04   9.959E-04   1.659E-04  -1.558E-02  -1.774E-02
    8   6.000E+00   4.101E-04  -3.282E-09  -8.961E-05  -4.101E-04   8.187E-04  -3.014E-04  -1.331E-02  -1.644E-02
    9   7.000E+00   3.154E-04  -6.822E-09  -9.833E-05  -3.154E-04   6.239E-04  -7.874E-04  -1.063E-02  -1.489E-02
   10   8.000E+00   2.134E-04  -1.112E-08  -1.042E-04  -2.134E-04   4.177E-04  -1.265E-03  -7.536E-03  -1.311E-02
   11   8.988E+00   1.084E-04  -1.587E-08  -1.067E-04  -1.084E-04   2.090E-04  -1.703E-03  -4.014E-03  -1.110E-02
   12   9.725E+00   2.913E-05  -1.954E-08  -1.064E-04  -2.913E-05   5.660E-05  -1.993E-03  -7.988E-05  -9.137E-03
   13   1.000E+01  -1.413E-21  -2.092E-08  -1.055E-04   1.413E-21   2.819E-11  -2.092E-03  -2.165E-10  -8.789E-03

 ****** MAXIMUM EFFECTIVE STRESS IN ISOTROPIC WALL ******
 STRMAX=  0.0000E+00
 ******************************************************

                         AXISYMMETRIC PRESTRESS DISTRIBUTION FOR SEGMENT 1

 POINT    STATION       W0         U0        SIGMA1(IN) SIGMA1(OUT) SIGMA2(IN) SIGMA2(OUT) SIGMAE(IN) SIGMAE(OUT)
       (ARC LENGTH)   NORMAL   MERIDIONAL     MERID.    MERIDIONAL   CIRCUMF.   CIRCUMF.    VON MISES EQUIVALENT
                       DISP.  DISPLACEMENT    STRESS      STRESS      STRESS     STRESS  INNER FIBER  OUTER FIBER

    1   0.000E+00   7.022E-04   3.231E-27  -1.206E+01   1.209E+01  -1.206E+01   1.209E+01   1.206E+01   1.209E+01
    2   2.750E-01   7.016E-04   2.866E-10  -1.242E+01   1.245E+01  -1.240E+01   1.243E+01   1.241E+01   1.244E+01
    3   1.013E+00   6.933E-04   9.722E-10  -1.231E+01   1.233E+01  -1.234E+01   1.237E+01   1.232E+01   1.235E+01
    4   2.000E+00   6.676E-04   1.611E-09  -1.193E+01   1.196E+01  -1.213E+01   1.215E+01   1.203E+01   1.206E+01
    5   3.000E+00   6.250E-04   1.687E-09  -1.132E+01   1.134E+01  -1.178E+01   1.180E+01   1.155E+01   1.158E+01
    6   4.000E+00   5.669E-04   9.756E-10  -1.045E+01   1.047E+01  -1.128E+01   1.129E+01   1.089E+01   1.091E+01
    7   5.000E+00   4.947E-04  -6.646E-10  -9.338E+00   9.358E+00  -1.065E+01   1.065E+01   1.006E+01   1.007E+01
    8   6.000E+00   4.101E-04  -3.282E-09  -7.978E+00   7.995E+00  -9.866E+00   9.860E+00   9.071E+00   9.072E+00
    9   7.000E+00   3.154E-04  -6.822E-09  -6.372E+00   6.384E+00  -8.945E+00   8.929E+00   7.976E+00   7.968E+00
   10   8.000E+00   2.134E-04  -1.112E-08  -4.517E+00   4.526E+00  -7.881E+00   7.856E+00   6.849E+00   6.829E+00
   11   8.988E+00   1.084E-04  -1.587E-08  -2.407E+00   2.411E+00  -6.678E+00   6.644E+00   5.858E+00   5.826E+00
   12   9.725E+00   2.913E-05  -1.954E-08  -4.736E-02   4.849E-02  -5.502E+00   5.462E+00   5.479E+00   5.438E+00
   13   1.000E+01  -1.413E-21  -2.092E-08   1.323E-02  -1.312E-02  -5.291E+00   5.249E+00   5.297E+00   5.255E+00

 ****** MAXIMUM EFFECTIVE STRESS IN ISOTROPIC WALL ******
 STRMAX=  1.2437E+01
 ******************************************************

 ****************************************


 PRESSURE MULTIPLIER, P=   1.000000E+00, TEMPERATURE MULTIPLIER,TEMP =   0.000000E+00
 ANGULAR VELOCITY, OMEGA=   0.000000E+00

  NUMBER OF NEWTON-RAPHSON ITERATIONS REQUIRED FOR  CONVERGENCE = ITER =  8

 OUTPUT FOR LOAD STEP NO.  2

                         AXISYMMETRIC PRESTRESS DISTRIBUTION FOR SEGMENT 1

 POINT   STATION        W0         U0          BETA        UV          N10         N20         M10         M20
       (ARC LENGTH)   NORMAL   MERIDIONAL     MERID.      AXIAL       MERID.     CIRCUMF.     MERID.     CIRCUMF.
                      DISP.   DISPLACEMENT     ROT.       DISP.     RESULTANT   RESULTANT    MOMENT      MOMENT

    1   0.000E+00   2.520E-01   0.000E+00   0.000E+00  -2.520E-01   1.614E+02   1.614E+02  -4.028E+00  -4.028E+00

 ***** Axial displacement, UV *******
 ENDUV = -2.5203E-01
 ************************************************
    2   2.750E-01   2.519E-01   3.041E-05  -1.129E-03  -2.519E-01   1.584E+02   1.581E+02  -4.954E+00  -4.907E+00
    3   1.013E+00   2.499E-01   1.069E-04  -4.350E-03  -2.499E-01   1.553E+02   1.521E+02  -5.269E+00  -5.161E+00
    4   2.000E+00   2.434E-01   1.903E-04  -8.887E-03  -2.434E-01   1.508E+02   1.404E+02  -5.544E+00  -5.366E+00
    5   3.000E+00   2.322E-01   2.313E-04  -1.379E-02  -2.322E-01   1.440E+02   1.203E+02  -5.923E+00  -5.608E+00
    6   4.000E+00   2.158E-01   2.001E-04  -1.910E-02  -2.158E-01   1.343E+02   9.031E+01  -6.376E+00  -5.893E+00
    7   5.000E+00   1.940E-01   6.152E-05  -2.484E-02  -1.940E-01   1.214E+02   4.871E+01  -6.818E+00  -6.186E+00
    8   6.000E+00   1.662E-01  -2.251E-04  -3.092E-02  -1.662E-01   1.047E+02  -6.119E+00  -7.085E+00  -6.420E+00
    9   7.000E+00   1.321E-01  -6.998E-04  -3.700E-02  -1.321E-01   8.394E+01  -7.479E+01  -6.917E+00  -6.479E+00
   10   8.000E+00   9.217E-02  -1.386E-03  -4.243E-02  -9.217E-02   5.905E+01  -1.555E+02  -5.940E+00  -6.202E+00
   11   8.988E+00   4.787E-02  -2.251E-03  -4.610E-02  -4.787E-02   3.083E+01  -2.412E+02  -3.707E+00  -5.387E+00
   12   9.725E+00   1.287E-02  -2.970E-03  -4.699E-02  -1.287E-02   8.618E+00  -3.028E+02  -1.207E-01  -4.063E+00
   13   1.000E+01  -9.161E-23  -3.246E-03  -4.663E-02   9.161E-23   2.384E-07  -3.246E+02  -2.766E-07  -3.886E+00

 ****** MAXIMUM EFFECTIVE STRESS IN ISOTROPIC WALL ******
 STRMAX=  0.0000E+00
 ******************************************************

                         AXISYMMETRIC PRESTRESS DISTRIBUTION FOR SEGMENT 1

 POINT    STATION       W0         U0        SIGMA1(IN) SIGMA1(OUT) SIGMA2(IN) SIGMA2(OUT) SIGMAE(IN) SIGMAE(OUT)
       (ARC LENGTH)   NORMAL   MERIDIONAL     MERID.    MERIDIONAL   CIRCUMF.   CIRCUMF.    VON MISES EQUIVALENT
                       DISP.  DISPLACEMENT    STRESS      STRESS      STRESS     STRESS  INNER FIBER  OUTER FIBER

    1   0.000E+00   2.520E-01   0.000E+00  -8.024E+02   4.031E+03  -8.024E+02   4.031E+03   8.024E+02   4.031E+03
    2   2.750E-01   2.519E-01   3.041E-05  -1.388E+03   4.556E+03  -1.363E+03   4.526E+03   1.376E+03   4.541E+03
    3   1.013E+00   2.499E-01   1.069E-04  -1.608E+03   4.714E+03  -1.575E+03   4.618E+03   1.592E+03   4.667E+03
    4   2.000E+00   2.434E-01   1.903E-04  -1.819E+03   4.835E+03  -1.816E+03   4.624E+03   1.817E+03   4.733E+03
    5   3.000E+00   2.322E-01   2.313E-04  -2.114E+03   4.994E+03  -2.162E+03   4.568E+03   2.138E+03   4.795E+03
    6   4.000E+00   2.158E-01   2.001E-04  -2.483E+03   5.169E+03  -2.632E+03   4.439E+03   2.561E+03   4.845E+03
    7   5.000E+00   1.940E-01   6.152E-05  -2.877E+03   5.304E+03  -3.225E+03   4.199E+03   3.066E+03   4.847E+03
    8   6.000E+00   1.662E-01  -2.251E-04  -3.204E+03   5.298E+03  -3.913E+03   3.791E+03   3.611E+03   4.728E+03
    9   7.000E+00   1.321E-01  -6.998E-04  -3.310E+03   4.989E+03  -4.636E+03   3.140E+03   4.135E+03   4.369E+03
   10   8.000E+00   9.217E-02  -1.386E-03  -2.974E+03   4.155E+03  -5.276E+03   2.166E+03   4.582E+03   3.599E+03
   11   8.988E+00   4.787E-02  -2.251E-03  -1.916E+03   2.533E+03  -5.644E+03   8.200E+02   4.971E+03   2.238E+03
   12   9.725E+00   1.287E-02  -2.970E-03   1.375E+01   1.586E+02  -5.466E+03  -5.901E+02   5.473E+03   6.833E+02
   13   1.000E+01  -9.161E-23  -3.246E-03   1.450E+01   1.717E+00  -5.573E+03  -9.137E+02   5.580E+03   9.146E+02

 ****** MAXIMUM EFFECTIVE STRESS IN ISOTROPIC WALL ******
 STRMAX=  5.5800E+03
 ******************************************************

 LOAD EXCEEDS MAXIMUM ALLOWABLE VALUE. CASE TERMINATED.
  ENTERING BOSOR4 POSTPROCESSOR...
